200 1329
56 109 879 728 714 1077 1189 1093 903 1205 146 417 1051 451 283 591 1059 643 757 317 144 413 84 184 755 832 1193 923 271 1250 830 1153 1129 331 846 926 105 1145 207 216 46 55 690 667 248 661 189 831 869 358 254 326 305 758 546 812 800 642 609 1054 998 749 776 795 1092 501 859 15 730 973 1000 37 940 1009 643 225 578 1133 780 1117 420 816 1090 578 110 831 1094 519 421 1068 898 983 1146 1156 557 1000 811 703 1191 1315 1301 588 785 469 64 638 816 439 314 841 740 1273 1312 604 991 258 813 1288 417 867 279 242 1261 20 283 585 749 47 496 131 420 657 297 653 313 919 1181 147 1293 744 1005 1132 1116 1173 352 870 978 562 1087 633 449 1227 900 1015 1193 982 793 1155 130 23 1144 1220 526 1081 222 792 722 593 1137 758 863 553 83 1279 197 632 1168 1171 451 512 766 58 500 1118 115 908 592 88 895 1082 438 1257 776 1163 88 651 469 849 638 447 